12 40 9 10
13 14 14 1 12 9 2 3 15 17 4 10 5 19 5 18 14 14 20 17 9 12 19 10 10 15 20 5 4 17 17 3 12 5 7 14 17 16 18 15 
6.72 4.31 7.28 7.76 6.46 7.12 0.55 1.22 3.53 6.36 0.26 6.86 1.79 3.71 5.64 3.09 4.4 6.17 8 4.97 6.42 7.54 5.86 6.65 6.81 6.76 4.33 2.47 2.81 7.92 7.32 3.21 6.94 6.05 7.16 2.46 4.47 2.53 2.14 0.23 
5.12 3.99 2.38 5.67 7.69 7.63 4.28 6.66 0.51 1.3 5.81 0.33 4.69 3.56 1.32 7.72 3.13 2.15 3.33 1.64 1.22 6.9 2.26 7.59 2.1 1.53 4.92 7.18 0.6 3.89 4.87 6.02 4.52 3.12 6.41 4.48 7.58 7.29 4.87 6.84 
5.75 5.82 4.24 2.22 5 1.3 2.96 1.54 6.73 0.08 0.48 5.9 1.44 3.49 3.72 4.5 5.16 5.29 3.18 4.52 4.48 1 2.29 0.89 3.52 3.02 2.3 6.33 7.55 7.56 6.99 6.42 4.93 1.25 3.02 5.43 0.7 2.99 1.16 2.99 
4.38 7.69 6.49 0.87 3.74 1.69 5.88 2.37 0.43 1.27 2.67 5.91 5.09 0.61 4.4 3.18 4 3.98 1.84 3.84 5.5 6.97 6.76 7.05 1.3 7.79 6.22 4.39 3.36 2.69 3.38 1.15 2.55 3.33 6.74 7.18 7.33 0.94 4.98 5.8 
4.6 6.83 1.7 6.83 6.2 0.7 4.74 1.08 1.27 6.31 3.13 7.02 4.84 4.33 5.39 7.61 6.83 6.51 7.98 2.11 2.13 0.58 1.94 2.15 0.33 1.65 2.8 1.06 7.27 2.42 5.22 2.68 2.64 4.34 0.69 1.23 5.86 5.3 7.33 1.84 
6.61 1.04 1.78 4.91 7.65 3.27 1.15 5.21 7.14 4.63 4.28 2.45 3.73 0.11 0.1 2.97 6.48 2.37 7.9 0.78 3.62 6.93 3.28 0.15 4.87 7.85 3.42 2.18 6.66 2.29 5.37 3.69 0.21 7.45 1.26 6.5 4.1 0.59 0.36 7.22 
0.76 6.66 2.65 1.1 1.28 7.05 1.85 4.46 0.31 2.06 1.73 2.21 5.4 1.6 0.4 6.42 5.96 0.95 2.92 3.83 6.56 0.09 2.33 3.63 7.46 5.91 0.38 6.62 5.69 1.2 5.66 0.75 6.72 1.96 7.92 0.89 5.57 3.19 7.74 7.15 
0.11 2.91 4.41 4.24 0.18 7.91 3.65 3.72 6.17 5.17 6.99 6.61 0.79 1.88 2.87 3.37 3.78 5.98 4 2.84 3.17 2.97 1.97 6.24 2.4 7.73 0.95 7.27 0.28 2.84 7.05 2.49 4.81 6.54 1.69 3.3 3.05 6.7 4.39 5.48 
5.29 5.57 6.89 4.77 5.22 5.96 6.42 0.03 1.55 2.43 3.01 1.1 1.54 2.26 5.72 2.94 3 0.76 1.02 2.19 3.18 4.37 7.9 6.79 0.96 4.93 1.5 4.95 7.9 7.64 0.14 4.41 7.81 5.76 4.26 1.47 6.05 0.02 1.21 5.91 
4 4 4 4 4 4 4 4 4 4 4 4 4 4 4 4 4 4 4 4 4 4 4 4 4 4 4 4 4 4 4 4 4 4 4 4 4 4 4 4 
7.5 1.75 1.95 6.98 2.58 3.93 3.15 1.28 2.04 7.15 7.58 1.87 4.04 2.96 3.99 4.31 5.08 1.93 4.83 3.5 0.06 3.74 6.55 3.65 7.75 6.44 7.64 5.66 2.74 1.82 4.34 5.41 0.86 0.44 0.9 4.32 4.57 4.38 3.58 0.51 
0.12 0.6 2.84 0.99 2.74 0.09 3.04 5.79 6.26 3.91 7.83 6.76 5.9 5.92 6.18 6.59 3.92 1.3 5.68 4.78 1.36 2.25 2.95 5.36 0.08 0.83 1.28 6.06 3.19 1.38 6.11 0.52 2.4 0.81 7.58 2.66 4 2.85 2.16 7.78 
1 1 1 1 1 1 1 1 1 1 1 1 1 1 1 1 1 1 1 1 1 1 1 1 1 1 1 1 1 1 1 1 1 1 1 1 1 1 1 1 
1 1 1 1 1 1 1 1 1 1 1 1 1 1 1 1 1 1 1 1 1 1 1 1 1 1 1 1 1 1 1 1 1 1 1 1 1 1 1 1 
1 1 1 1 1 1 1 1 1 1 1 1 1 1 1 1 1 1 1 1 1 1 1 1 1 1 1 1 1 1 1 1 1 1 1 1 1 1 1 1 
1 1 1 1 1 1 1 1 1 1 1 1 1 1 1 1 1 1 1 1 1 1 1 1 1 1 1 1 1 1 1 1 1 1 1 1 1 1 1 1 
1 1 1 1 1 1 1 1 1 1 1 1 1 1 1 1 1 1 1 1 1 1 1 1 1 1 1 1 1 1 1 1 1 1 1 1 1 1 1 1 
1 1 1 1 1 1 1 1 1 1 1 1 1 1 1 1 1 1 1 1 1 1 1 1 1 1 1 1 1 1 1 1 1 1 1 1 1 1 1 1 
1 1 1 1 1 1 1 1 1 1 1 1 1 1 1 1 1 1 1 1 1 1 1 1 1 1 1 1 1 1 1 1 1 1 1 1 1 1 1 1 
1 1 1 1 1 1 1 1 1 1 1 1 1 1 1 1 1 1 1 1 1 1 1 1 1 1 1 1 1 1 1 1 1 1 1 1 1 1 1 1 
1 1 1 1 1 1 1 1 1 1 1 1 1 1 1 1 1 1 1 1 1 1 1 1 1 1 1 1 1 1 1 1 1 1 1 1 1 1 1 1 
1 1 1 1 1 1 1 1 1 1 1 1 1 1 1 1 1 1 1 1 1 1 1 1 1 1 1 1 1 1 1 1 1 1 1 1 1 1 1 1 
1 1 1 1 1 1 1 1 1 1 1 1 1 1 1 1 1 1 1 1 1 1 1 1 1 1 1 1 1 1 1 1 1 1 1 1 1 1 1 1 
1 1 1 1 1 1 1 1 1 1 1 1 1 1 1 1 1 1 1 1 1 1 1 1 1 1 1 1 1 1 1 1 1 1 1 1 1 1 1 1 
0.01 0.01 0.01 0.01 0.01 0.01 0.01 0.01 0.01 0.01 0.01 0.01 0.01 0.01 0.01 0.01 0.01 0.01 0.01 0.01 0.01 0.01 0.01 0.01 0.01 0.01 0.01 0.01 0.01 0.01 0.01 0.01 0.01 0.01 0.01 0.01 0.01 0.01 0.01 0.01 
0.02 0.02 0.02 0.02 0.02 0.02 0.02 0.02 0.02 0.02 0.02 0.02 0.02 0.02 0.02 0.02 0.02 0.02 0.02 0.02 0.02 0.02 0.02 0.02 0.02 0.02 0.02 0.02 0.02 0.02 0.02 0.02 0.02 0.02 0.02 0.02 0.02 0.02 0.02 0.02 
0.03 0.03 0.03 0.03 0.03 0.03 0.03 0.03 0.03 0.03 0.03 0.03 0.03 0.03 0.03 0.03 0.03 0.03 0.03 0.03 0.03 0.03 0.03 0.03 0.03 0.03 0.03 0.03 0.03 0.03 0.03 0.03 0.03 0.03 0.03 0.03 0.03 0.03 0.03 0.03 
0.04 0.04 0.04 0.04 0.04 0.04 0.04 0.04 0.04 0.04 0.04 0.04 0.04 0.04 0.04 0.04 0.04 0.04 0.04 0.04 0.04 0.04 0.04 0.04 0.04 0.04 0.04 0.04 0.04 0.04 0.04 0.04 0.04 0.04 0.04 0.04 0.04 0.04 0.04 0.04 
0.05 0.05 0.05 0.05 0.05 0.05 0.05 0.05 0.05 0.05 0.05 0.05 0.05 0.05 0.05 0.05 0.05 0.05 0.05 0.05 0.05 0.05 0.05 0.05 0.05 0.05 0.05 0.05 0.05 0.05 0.05 0.05 0.05 0.05 0.05 0.05 0.05 0.05 0.05 0.05 
0.06 0.06 0.06 0.06 0.06 0.06 0.06 0.06 0.06 0.06 0.06 0.06 0.06 0.06 0.06 0.06 0.06 0.06 0.06 0.06 0.06 0.06 0.06 0.06 0.06 0.06 0.06 0.06 0.06 0.06 0.06 0.06 0.06 0.06 0.06 0.06 0.06 0.06 0.06 0.06 
0.07 0.07 0.07 0.07 0.07 0.07 0.07 0.07 0.07 0.07 0.07 0.07 0.07 0.07 0.07 0.07 0.07 0.07 0.07 0.07 0.07 0.07 0.07 0.07 0.07 0.07 0.07 0.07 0.07 0.07 0.07 0.07 0.07 0.07 0.07 0.07 0.07 0.07 0.07 0.07 
0.08 0.08 0.08 0.08 0.08 0.08 0.08 0.08 0.08 0.08 0.08 0.08 0.08 0.08 0.08 0.08 0.08 0.08 0.08 0.08 0.08 0.08 0.08 0.08 0.08 0.08 0.08 0.08 0.08 0.08 0.08 0.08 0.08 0.08 0.08 0.08 0.08 0.08 0.08 0.08 
0.09 0.09 0.09 0.09 0.09 0.09 0.09 0.09 0.09 0.09 0.09 0.09 0.09 0.09 0.09 0.09 0.09 0.09 0.09 0.09 0.09 0.09 0.09 0.09 0.09 0.09 0.09 0.09 0.09 0.09 0.09 0.09 0.09 0.09 0.09 0.09 0.09 0.09 0.09 0.09 
0.1 0.1 0.1 0.1 0.1 0.1 0.1 0.1 0.1 0.1 0.1 0.1 0.1 0.1 0.1 0.1 0.1 0.1 0.1 0.1 0.1 0.1 0.1 0.1 0.1 0.1 0.1 0.1 0.1 0.1 0.1 0.1 0.1 0.1 0.1 0.1 0.1 0.1 0.1 0.1 
0.5 0.5 0.5 0.5 0.5 0.5 0.5 0.5 0.5 0.5 0.5 0.5 0.5 0.5 0.5 0.5 0.5 0.5 0.5 0.5 0.5 0.5 0.5 0.5 0.5 0.5 0.5 0.5 0.5 0.5 0.5 0.5 0.5 0.5 0.5 0.5 0.5 0.5 0.5 0.5 
1 1 1 1 1 1 1 1 1 1 1 1 1 1 1 1 1 1 1 1 1 1 1 1 1 1 1 1 1 1 1 1 1 1 1 1 1 1 1 1 
